p edge 200 990
e 16 1
e 18 1
e 25 1
e 43 1
e 57 1
e 96 1
e 105 1
e 113 1
e 170 1
e 175 1
e 14 2
e 51 2
e 55 2
e 60 2
e 95 2
e 97 2
e 105 2
e 137 2
e 143 2
e 180 2
e 182 2
e 183 2
e 5 3
e 14 3
e 38 3
e 41 3
e 64 3
e 113 3
e 172 3
e 176 3
e 192 3
e 6 4
e 8 4
e 85 4
e 108 4
e 111 4
e 117 4
e 125 4
e 176 4
e 188 4
e 200 4
e 21 5
e 22 5
e 24 5
e 99 5
e 110 5
e 118 5
e 162 5
e 20 6
e 34 6
e 38 6
e 56 6
e 75 6
e 87 6
e 115 6
e 154 6
e 167 6
e 172 6
e 13 7
e 27 7
e 31 7
e 43 7
e 62 7
e 68 7
e 103 7
e 107 7
e 151 7
e 164 7
e 170 7
e 17 8
e 37 8
e 44 8
e 92 8
e 95 8
e 127 8
e 137 8
e 138 8
e 139 8
e 162 8
e 167 8
e 174 8
e 175 8
e 40 9
e 63 9
e 86 9
e 90 9
e 127 9
e 136 9
e 151 9
e 184 9
e 190 9
e 32 10
e 41 10
e 65 10
e 184 10
e 193 10
e 47 11
e 83 11
e 154 11
e 155 11
e 167 11
e 199 11
e 64 12
e 17 13
e 27 13
e 126 13
e 129 13
e 130 13
e 178 13
e 195 13
e 93 14
e 105 14
e 121 14
e 141 14
e 166 14
e 170 14
e 56 15
e 99 15
e 101 15
e 114 15
e 127 15
e 182 15
e 189 15
e 23 16
e 36 16
e 67 16
e 81 16
e 122 16
e 137 16
e 147 16
e 152 16
e 159 16
e 163 16
e 164 16
e 21 17
e 62 17
e 68 17
e 84 17
e 86 17
e 111 17
e 146 17
e 152 17
e 153 17
e 157 17
e 172 17
e 187 17
e 39 18
e 62 18
e 88 18
e 92 18
e 116 18
e 125 18
e 130 18
e 134 18
e 147 18
e 182 18
e 39 19
e 64 19
e 93 19
e 140 19
e 145 19
e 156 19
e 185 19
e 61 20
e 86 20
e 124 20
e 141 20
e 152 20
e 155 20
e 38 21
e 88 21
e 103 21
e 149 21
e 179 21
e 197 21
e 199 21
e 28 22
e 38 22
e 44 22
e 95 22
e 117 22
e 141 22
e 153 22
e 184 22
e 33 23
e 45 23
e 49 23
e 78 23
e 93 23
e 109 23
e 125 23
e 134 23
e 140 23
e 166 23
e 183 23
e 198 23
e 28 24
e 58 24
e 63 24
e 68 24
e 75 24
e 91 24
e 115 24
e 139 24
e 172 24
e 183 24
e 191 24
e 75 25
e 81 25
e 87 25
e 92 25
e 96 25
e 150 25
e 151 25
e 152 25
e 168 25
e 174 25
e 176 25
e 188 25
e 56 26
e 77 26
e 88 26
e 117 26
e 143 26
e 152 26
e 171 26
e 172 26
e 174 26
e 182 26
e 185 26
e 77 27
e 102 27
e 124 27
e 143 27
e 167 27
e 169 27
e 174 27
e 179 27
e 35 28
e 43 28
e 61 28
e 116 28
e 130 28
e 181 28
e 183 28
e 184 28
e 191 28
e 194 28
e 53 29
e 69 29
e 88 29
e 92 29
e 114 29
e 130 29
e 149 29
e 181 29
e 58 30
e 69 30
e 88 30
e 184 30
e 185 30
e 38 31
e 58 31
e 93 31
e 103 31
e 123 31
e 138 31
e 161 31
e 167 31
e 170 31
e 171 31
e 172 31
e 193 31
e 49 32
e 61 32
e 80 32
e 89 32
e 100 32
e 110 32
e 128 32
e 140 32
e 166 32
e 167 32
e 176 32
e 41 33
e 47 33
e 74 33
e 89 33
e 102 33
e 105 33
e 121 33
e 127 33
e 141 33
e 176 33
e 191 33
e 198 33
e 51 34
e 113 34
e 150 34
e 176 34
e 47 35
e 62 35
e 78 35
e 79 35
e 127 35
e 130 35
e 137 35
e 177 35
e 193 35
e 114 36
e 120 36
e 121 36
e 156 36
e 168 36
e 199 36
e 59 37
e 70 37
e 71 37
e 96 37
e 106 37
e 117 37
e 132 37
e 134 37
e 147 37
e 199 37
e 41 38
e 43 38
e 55 38
e 96 38
e 99 38
e 121 38
e 153 38
e 154 38
e 187 38
e 194 38
e 71 39
e 72 39
e 114 39
e 121 39
e 143 39
e 154 39
e 179 39
e 62 40
e 96 40
e 164 40
e 188 40
e 196 40
e 62 41
e 67 41
e 92 41
e 131 41
e 187 41
e 54 42
e 74 42
e 101 42
e 103 42
e 128 42
e 152 42
e 165 42
e 180 42
e 183 42
e 48 43
e 52 43
e 63 43
e 65 43
e 72 43
e 101 43
e 136 43
e 198 43
e 64 44
e 66 44
e 74 44
e 81 44
e 121 44
e 124 44
e 135 44
e 136 44
e 155 44
e 48 45
e 58 45
e 92 45
e 109 45
e 110 45
e 120 45
e 132 45
e 140 45
e 157 45
e 158 45
e 164 45
e 189 45
e 196 45
e 50 46
e 102 46
e 130 46
e 156 46
e 68 47
e 93 47
e 95 47
e 142 47
e 159 47
e 168 47
e 176 47
e 196 47
e 58 48
e 67 48
e 68 48
e 105 48
e 138 48
e 161 48
e 171 48
e 177 48
e 183 48
e 185 48
e 54 49
e 62 49
e 146 49
e 178 49
e 192 49
e 56 50
e 61 50
e 66 50
e 75 50
e 107 50
e 111 50
e 128 50
e 130 50
e 133 50
e 149 50
e 157 50
e 160 50
e 162 50
e 166 50
e 177 50
e 187 50
e 63 51
e 69 51
e 104 51
e 121 51
e 154 51
e 158 51
e 170 51
e 176 51
e 196 51
e 68 52
e 82 52
e 96 52
e 107 52
e 121 52
e 125 52
e 128 52
e 150 52
e 158 52
e 160 52
e 184 52
e 197 52
e 75 53
e 93 53
e 98 53
e 152 53
e 168 53
e 170 53
e 64 54
e 113 54
e 149 54
e 166 54
e 59 55
e 105 55
e 123 55
e 170 55
e 159 56
e 163 56
e 166 56
e 171 56
e 180 56
e 195 56
e 59 57
e 110 57
e 113 57
e 122 57
e 158 57
e 168 57
e 184 57
e 189 57
e 88 58
e 153 58
e 196 58
e 72 59
e 75 59
e 102 59
e 118 59
e 147 59
e 168 59
e 193 59
e 194 59
e 70 60
e 79 60
e 84 60
e 90 60
e 93 60
e 108 60
e 140 60
e 159 60
e 172 60
e 174 60
e 186 60
e 199 60
e 103 61
e 105 61
e 152 61
e 153 61
e 70 62
e 89 62
e 113 62
e 142 62
e 156 62
e 189 62
e 200 62
e 97 63
e 142 63
e 159 63
e 160 63
e 168 63
e 171 63
e 178 63
e 72 64
e 90 64
e 95 64
e 97 64
e 101 64
e 113 64
e 136 64
e 159 64
e 174 64
e 198 64
e 74 65
e 124 65
e 129 65
e 137 65
e 146 65
e 154 65
e 162 65
e 79 66
e 93 66
e 115 66
e 172 66
e 180 66
e 200 66
e 112 67
e 114 67
e 119 67
e 126 67
e 70 68
e 90 68
e 96 68
e 110 68
e 112 68
e 129 68
e 149 68
e 81 69
e 90 69
e 95 69
e 136 69
e 155 69
e 168 69
e 175 69
e 192 69
e 198 69
e 107 70
e 118 70
e 122 70
e 130 70
e 194 70
e 118 71
e 127 71
e 156 71
e 170 71
e 95 72
e 130 72
e 168 72
e 85 73
e 115 73
e 134 73
e 182 73
e 187 73
e 76 74
e 112 74
e 144 74
e 89 75
e 105 75
e 131 75
e 132 75
e 154 75
e 161 75
e 94 76
e 108 76
e 110 76
e 123 76
e 124 76
e 138 76
e 81 77
e 83 77
e 98 77
e 102 77
e 123 77
e 137 77
e 189 77
e 104 78
e 110 78
e 115 78
e 161 78
e 81 79
e 132 79
e 175 79
e 182 79
e 87 80
e 128 80
e 182 80
e 185 80
e 188 80
e 89 81
e 98 81
e 155 81
e 179 81
e 181 81
e 86 82
e 107 82
e 120 82
e 121 82
e 179 82
e 185 82
e 104 83
e 112 83
e 180 83
e 185 83
e 163 84
e 168 84
e 178 84
e 200 84
e 149 85
e 161 85
e 198 85
e 103 86
e 106 86
e 153 86
e 186 86
e 110 87
e 134 87
e 140 87
e 146 87
e 159 87
e 97 88
e 117 88
e 132 88
e 135 88
e 139 88
e 166 88
e 176 88
e 91 89
e 92 89
e 95 89
e 115 89
e 133 89
e 139 89
e 166 89
e 169 89
e 200 89
e 95 90
e 101 90
e 124 90
e 133 90
e 145 90
e 173 90
e 196 90
e 92 91
e 104 91
e 106 91
e 157 91
e 163 91
e 178 91
e 97 92
e 100 92
e 123 92
e 139 92
e 141 92
e 158 92
e 170 92
e 173 92
e 183 92
e 188 92
e 103 93
e 106 93
e 122 93
e 136 93
e 187 93
e 112 94
e 121 94
e 137 94
e 146 94
e 172 94
e 186 94
e 96 95
e 109 95
e 122 95
e 134 95
e 136 95
e 186 95
e 198 95
e 199 95
e 97 96
e 106 96
e 112 96
e 131 96
e 153 96
e 166 96
e 167 96
e 98 97
e 100 97
e 118 97
e 137 97
e 143 97
e 162 97
e 183 97
e 189 97
e 121 98
e 143 98
e 153 98
e 161 98
e 164 98
e 175 98
e 181 98
e 188 98
e 115 99
e 118 99
e 119 99
e 152 99
e 164 99
e 170 99
e 157 100
e 179 100
e 181 100
e 182 100
e 114 101
e 154 101
e 176 101
e 179 101
e 181 101
e 186 101
e 114 102
e 116 102
e 160 102
e 171 102
e 113 103
e 117 103
e 131 103
e 140 103
e 151 103
e 174 103
e 177 103
e 107 104
e 122 104
e 129 104
e 160 104
e 169 104
e 170 104
e 151 105
e 173 105
e 174 105
e 186 105
e 135 106
e 172 106
e 178 106
e 184 106
e 122 107
e 125 107
e 176 107
e 178 107
e 199 107
e 148 108
e 181 108
e 130 109
e 131 109
e 140 109
e 155 109
e 156 109
e 172 109
e 112 110
e 115 110
e 129 110
e 161 110
e 192 110
e 116 111
e 118 111
e 119 111
e 133 111
e 142 111
e 149 111
e 188 111
e 197 111
e 114 112
e 121 112
e 135 112
e 140 112
e 168 112
e 145 113
e 160 113
e 129 114
e 172 114
e 192 114
e 198 114
e 122 115
e 144 115
e 160 115
e 171 115
e 185 115
e 124 116
e 130 116
e 139 116
e 148 116
e 150 116
e 125 117
e 127 117
e 181 117
e 200 117
e 120 118
e 127 118
e 129 118
e 130 118
e 176 118
e 180 118
e 181 118
e 183 118
e 187 118
e 145 119
e 146 119
e 165 119
e 166 119
e 139 120
e 150 120
e 152 120
e 167 120
e 172 120
e 138 121
e 150 121
e 163 121
e 197 121
e 198 121
e 144 122
e 159 122
e 185 122
e 144 123
e 146 123
e 170 123
e 127 125
e 142 125
e 165 125
e 170 125
e 181 125
e 134 126
e 135 126
e 178 126
e 165 127
e 166 127
e 174 127
e 183 127
e 189 127
e 197 127
e 152 130
e 154 130
e 171 130
e 185 131
e 137 132
e 200 132
e 138 133
e 139 133
e 143 133
e 182 133
e 135 134
e 149 134
e 151 134
e 160 134
e 161 134
e 165 134
e 166 134
e 140 135
e 155 135
e 199 135
e 137 136
e 178 137
e 145 138
e 154 138
e 174 138
e 176 138
e 157 139
e 159 139
e 177 139
e 184 139
e 141 140
e 148 140
e 149 140
e 153 140
e 157 140
e 159 140
e 180 140
e 181 140
e 159 141
e 163 141
e 175 141
e 145 143
e 157 143
e 169 143
e 171 143
e 181 143
e 184 143
e 169 144
e 195 144
e 197 144
e 200 144
e 186 145
e 187 145
e 179 146
e 180 146
e 182 146
e 167 147
e 180 148
e 181 149
e 193 149
e 191 150
e 192 150
e 194 150
e 165 151
e 180 151
e 175 152
e 187 152
e 199 152
e 163 153
e 161 154
e 186 154
e 197 154
e 200 154
e 168 155
e 170 156
e 171 156
e 182 156
e 184 156
e 195 157
e 169 158
e 177 158
e 198 160
e 164 162
e 166 162
e 182 162
e 183 162
e 184 162
e 172 164
e 176 164
e 197 165
e 198 165
e 183 166
e 186 167
e 192 167
e 171 168
e 179 168
e 197 168
e 173 169
e 196 169
e 184 170
e 199 170
e 184 172
e 187 172
e 197 172
e 198 174
e 185 175
e 193 175
e 190 176
e 179 178
e 182 178
e 187 178
e 197 178
e 181 180
e 187 181
e 195 182
e 192 183
e 194 183
e 195 183
e 200 183
e 200 184
e 188 187
e 195 187
e 199 194
e 200 199
